qbf_easy_train/easy_4947_UNSAT.qdimacs
p cnf 34 97
a 9 27 31 0
e 1 2 3 4 5 6 7 8 10 11 12 13 14 15 16 17 18 19 20 21 22 23 24 25 26 28 29 30 32 33 34 0
3 1 0
3 -2 0
-1 2 -3 0
4 -5 -6 0
-4 5 -6 0
4 5 6 0
-4 -5 6 0
-1 -7 -8 0
1 7 -8 0
-1 7 8 0
1 -7 8 0
9 -6 0
9 8 0
6 -8 -9 0
-11 -8 0
-11 10 0
8 -10 11 0
-12 -9 0
-12 -11 0
9 11 12 0
-3 -12 -13 0
3 12 -13 0
-3 12 13 0
3 -12 13 0
-14 7 -15 0
14 -7 -15 0
-14 -7 15 0
14 7 15 0
6 5 -16 0
-6 -5 -16 0
6 -5 16 0
-6 5 16 0
-17 15 0
-17 -16 0
-15 16 17 0
9 14 -18 0
-9 -14 -18 0
9 -14 18 0
-9 14 18 0
1 18 -19 0
-1 -18 -19 0
1 -18 19 0
-1 18 19 0
20 11 0
20 -2 0
-11 2 -20 0
-21 -20 0
-21 18 0
20 -18 21 0
-22 4 0
-22 11 0
-4 -11 22 0
-23 -22 0
-23 7 0
22 -7 23 0
24 6 0
24 -23 0
-6 23 -24 0
-25 -21 0
-25 24 0
21 -24 25 0
-26 19 0
-26 -25 0
-19 25 26 0
-27 -17 0
-27 26 0
17 -26 27 0
29 10 0
29 5 0
-10 -5 -29 0
30 -4 0
30 -29 0
4 29 -30 0
-20 -30 -31 0
20 30 -31 0
-20 30 31 0
20 -30 31 0
28 31 -32 0
-28 -31 -32 0
28 -31 32 0
-28 31 32 0
-33 27 0
-33 32 0
-27 -32 33 0
34 -13 0
34 -33 0
13 33 -34 0
34 8 10 0
-23 -19 -34 0
4 -11 25 15 -24 -1 -21 18 0
-12 24 -19 22 33 27 0
-22 32 -1 6 28 -24 23 0
-16 14 10 7 22 -25 0
-28 23 -33 5 0
18 -10 13 26 0
1 25 -15 -11 0
34 0
