sat_easy_train/easy_4947_UNSAT.dimacs
p cnf 111 355
-3 -1 0
-3 -2 0
1 2 3 0
-4 -3 0
-4 2 0
3 -2 4 0
-6 -4 0
-6 -5 0
4 5 6 0
-8 -4 0
-8 7 0
4 -7 8 0
10 -1 0
10 9 0
1 -9 -10 0
-11 9 -12 0
11 -9 -12 0
-11 -9 12 0
11 9 12 0
12 13 -14 0
-12 -13 -14 0
12 -13 14 0
-12 13 14 0
15 11 0
15 14 0
-11 -14 -15 0
16 -10 0
16 15 0
10 -15 -16 0
-17 -8 0
-17 -16 0
8 16 17 0
-18 6 0
-18 17 0
-6 -17 18 0
1 5 -20 0
-1 -5 -20 0
1 -5 20 0
-1 5 20 0
-21 -19 0
-21 -20 0
19 20 21 0
22 -19 0
22 13 0
19 -13 -22 0
20 22 -23 0
-20 -22 -23 0
20 -22 23 0
-20 22 23 0
25 -23 0
25 24 0
23 -24 -25 0
21 25 -26 0
-21 -25 -26 0
21 -25 26 0
-21 25 26 0
-27 -18 0
-27 26 0
18 -26 27 0
-30 28 0
-30 29 0
-28 -29 30 0
-30 -11 -31 0
30 11 -31 0
-30 11 31 0
30 -11 31 0
32 24 0
32 -31 0
-24 31 -32 0
-35 -33 0
-35 -34 0
33 34 35 0
-5 10 -36 0
5 -10 -36 0
-5 -10 36 0
5 10 36 0
-37 -36 0
-37 -7 0
36 7 37 0
-38 35 0
-38 37 0
-35 -37 38 0
39 -20 0
39 -34 0
20 34 -39 0
40 -39 0
40 -33 0
39 33 -40 0
-41 14 0
-41 -40 0
-14 40 41 0
-43 -9 0
-43 42 0
9 -42 43 0
-44 43 0
-44 -11 0
-43 11 44 0
-45 -41 0
-45 44 0
41 -44 45 0
46 -22 0
46 -22 0
22 -46 0
47 46 0
47 42 0
-46 -42 -47 0
-47 -20 -48 0
47 20 -48 0
-47 20 48 0
47 -20 48 0
34 49 0
-34 49 0
50 22 0
50 49 0
-22 -49 -50 0
-48 -50 -51 0
48 50 -51 0
-48 50 51 0
48 -50 51 0
52 45 0
52 -51 0
-45 51 -52 0
-53 38 0
-53 -52 0
-38 52 53 0
54 32 0
54 -53 0
-32 53 -54 0
55 25 0
55 22 0
-25 -22 -55 0
56 55 0
56 -16 0
-55 16 -56 0
57 8 -58 0
-57 -8 -58 0
57 -8 58 0
-57 8 58 0
59 -56 0
59 58 0
56 -58 -59 0
-54 59 -60 0
54 -59 -60 0
-54 -59 60 0
54 59 60 0
61 5 0
61 29 0
-5 -29 -61 0
-62 21 0
-62 -49 0
-21 49 62 0
63 -61 0
63 -62 0
61 62 -63 0
-64 3 0
-64 12 0
-3 -12 64 0
65 19 0
65 3 0
-19 -3 -65 0
66 49 0
66 -22 0
-49 22 -66 0
67 -65 0
67 -66 0
65 66 -67 0
64 67 -68 0
-64 -67 -68 0
64 -67 68 0
-64 67 68 0
69 46 0
69 -68 0
-46 68 -69 0
-70 -24 0
-70 10 0
24 -10 70 0
-49 -21 -71 0
49 21 -71 0
-49 21 71 0
49 -21 71 0
-72 70 0
-72 -71 0
-70 71 72 0
-73 -66 0
-73 36 0
66 -36 73 0
74 -46 0
74 29 0
46 -29 -74 0
-75 -24 0
-75 -74 0
24 74 75 0
73 75 -76 0
-73 -75 -76 0
73 -75 76 0
-73 75 76 0
-72 76 -77 0
72 -76 -77 0
-72 -76 77 0
72 76 77 0
78 -69 0
78 -77 0
69 77 -78 0
79 63 0
79 78 0
-63 -78 -79 0
80 -23 0
80 34 0
23 -34 -80 0
-81 79 0
-81 80 0
-79 -80 81 0
-60 81 -82 0
60 -81 -82 0
-60 -81 82 0
60 81 82 0
-83 -27 0
-83 -82 0
27 82 83 0
-84 2 0
-84 9 0
-2 -9 84 0
85 -9 0
85 -84 0
9 84 -85 0
-86 85 0
-86 -5 0
-85 5 86 0
87 -30 0
87 -23 0
30 23 -87 0
87 31 -88 0
-87 -31 -88 0
87 -31 88 0
-87 31 88 0
89 86 0
89 -88 0
-86 88 -89 0
-46 -30 -90 0
46 30 -90 0
-46 30 90 0
46 -30 90 0
-91 21 0
-91 90 0
-21 -90 91 0
57 28 -92 0
-57 -28 -92 0
57 -28 92 0
-57 28 92 0
93 -5 0
93 42 0
5 -42 -93 0
-92 93 -94 0
92 -93 -94 0
-92 -93 94 0
92 93 94 0
-95 91 0
-95 -94 0
-91 94 95 0
96 25 0
96 11 0
-25 -11 -96 0
-96 -90 -97 0
96 90 -97 0
-96 90 97 0
96 -90 97 0
-98 -95 0
-98 97 0
95 -97 98 0
99 89 0
99 98 0
-89 -98 -99 0
-100 57 0
-100 -20 0
-57 20 100 0
-101 -28 0
-101 -4 0
28 4 101 0
-102 11 0
-102 -19 0
-11 19 102 0
-66 -102 -103 0
66 102 -103 0
-66 102 103 0
66 -102 103 0
104 101 0
104 103 0
-101 -103 -104 0
-100 104 -105 0
100 -104 -105 0
-100 -104 105 0
100 104 105 0
107 7 0
107 64 0
-7 -64 -107 0
106 107 -108 0
-106 -107 -108 0
106 -107 108 0
-106 107 108 0
-109 -105 0
-109 -108 0
105 108 109 0
110 99 0
110 109 0
-99 -109 -110 0
111 83 0
111 110 0
-83 -110 -111 0
-52 -7 0
-19 53 0
76 -111 13 0
53 -72 -94 0
53 -101 11 83 93 -77 0
40 -56 0
-13 -33 73 0
97 73 -30 0
-9 -94 50 0
32 -84 9 63 0
-43 78 -50 -100 1 0
-6 91 -59 -84 29 24 0
99 -22 -91 51 65 -81 0
-82 -30 0
25 100 82 0
-74 -107 87 -16 0
-5 10 -13 -23 -53 0
-32 -97 68 -61 0
-12 -90 91 103 39 0
-50 -90 -88 0
-109 -51 0
44 22 14 -92 0
-23 65 108 5 0
69 -31 -61 -98 111 0
-84 -12 5 0
60 66 0
83 -80 90 -110 0
-17 107 0
75 71 102 -33 0
59 -104 0
17 51 -53 57 14 0
-98 -87 -108 -72 -68 0
-67 43 -89 60 98 0
-28 89 -4 -70 -97 -76 0
70 99 80 -64 -83 0
80 -54 -19 5 -97 72 0
-34 -71 53 -47 98 0
7 81 101 -100 -36 -34 0
-105 -21 0
-81 10 0
-61 -3 0
-33 96 0
-48 -83 0
-47 49 86 99 41 0
46 84 4 -100 87 0
-106 -17 5 88 -92 0
111 0
